c AI planning file sortnetsort7.AE.stepl.003.qcnf (Jussi.Rintanen@NICTA.com.au)
p cnf 1356 2270 
a 33 34 35 36 37 38 39 40 41 42 43 44 45 46 47 48 49 50 51 52 53 54 55 56 57 58 59 60 61 62 63 64 65 66 67 68 69 70 71 72 73 74 75 76 77 78 79 80 81 82 83 84 85 86 87 88 89 90 91 92 93 94 95 96 97 98 99 100 101 102 103 104 105 106 107 108 109 110 111 112 113 114 115 116 117 118 119 120 121 122 123 124 125 126 127 128 129 130 131 132 133 134 135 136 137 138 139 140 141 142 143 144 145 146 147 148 149 150 151 152 153 154 155 1153 1154 1155 1156 1157 1158 1159 1160 1161 1162 1163 1164 1165 1166 1167 1168 1169 1170 1171 1172 1173 1174 1175 1176 1177 1178 1179 1180 1181 1182 1183 1184 1185 1186 1187 1188 1189 1190 1191 1192 1193 1194 1195 1196 1197 1198 1199 1200 1201 1202 1203 1204 1205 1206 1207 1208 1209 1210 1211 1212 1255 1256 1257 1258 1259 1260 1261 1262 1263 1264 1265 1266 1267 1268 1269 1270 1271 1272 1273 1274 1275 1276 1277 1278 1279 1280 1281 1282 1283 1284 1285 1286 1287 1288 1289 1290 1291 1292 1293 1294 1295 1296 1297 1298 1299 1300 1301 1302 1303 1304 1305 1306 1307 1308 1309 1310 1311 1312 1313 1314 0
e 1 2 3 4 5 6 7 8 9 10 11 12 13 14 15 16 17 18 19 20 21 22 23 24 25 26 27 28 29 30 31 32 156 157 158 159 160 161 162 163 164 165 166 167 168 169 170 171 172 173 174 175 176 177 178 179 180 181 182 183 184 185 186 187 188 189 190 191 192 193 194 195 196 197 198 199 200 201 202 203 204 205 206 207 208 209 210 211 212 213 214 215 216 217 218 219 220 221 222 223 224 225 226 227 228 229 230 231 232 233 234 235 236 237 238 239 240 241 242 243 244 245 246 247 248 249 250 251 252 253 254 255 256 257 258 259 260 261 262 263 264 265 266 267 268 269 270 271 272 273 274 275 276 277 278 279 280 281 282 283 284 285 286 287 288 289 290 291 292 293 294 295 296 297 298 299 300 301 302 303 304 305 306 307 308 309 310 311 312 313 314 315 316 317 318 319 320 321 322 323 324 325 326 327 328 329 330 331 332 333 334 335 336 337 338 339 340 341 342 343 344 345 346 347 348 349 350 351 352 353 354 355 356 357 358 359 360 361 362 363 364 365 366 367 368 369 370 371 372 373 374 375 376 377 378 379 380 381 382 383 384 385 386 387 388 389 390 391 392 393 394 395 396 397 398 399 400 401 402 403 404 405 406 407 408 409 410 411 412 413 414 415 416 417 418 419 420 421 422 423 424 425 426 427 428 429 430 431 432 433 434 435 436 437 438 439 440 441 442 443 444 445 446 447 448 449 450 451 452 453 454 455 456 457 458 459 460 461 462 463 464 465 466 467 468 469 470 471 472 473 474 475 476 477 478 479 480 481 482 483 484 485 486 487 488 489 490 491 492 493 494 495 496 497 498 499 500 501 502 503 504 505 506 507 508 509 510 511 512 513 514 515 516 517 518 519 520 521 522 523 524 525 526 527 528 529 530 531 532 533 534 535 536 537 538 539 540 541 542 543 544 545 546 547 548 549 550 551 552 553 554 555 556 557 558 559 560 561 562 563 564 565 566 567 568 569 570 571 572 573 574 575 576 577 578 579 580 581 582 583 584 585 586 587 588 589 590 591 592 593 594 595 596 597 598 599 600 601 602 603 604 605 606 607 608 609 610 611 612 613 614 615 616 617 618 619 620 621 622 623 624 625 626 627 628 629 630 631 632 633 634 635 636 637 638 639 640 641 642 643 644 645 646 647 648 649 650 651 652 653 654 655 656 657 658 659 660 661 662 663 664 665 666 667 668 669 670 671 672 673 674 675 676 677 678 679 680 681 682 683 684 685 686 687 688 689 690 691 692 693 694 695 696 697 698 699 700 701 702 703 704 705 706 707 708 709 710 711 712 713 714 715 716 717 718 719 720 721 722 723 724 725 726 727 728 729 730 731 732 733 734 735 736 737 738 739 740 741 742 743 744 745 746 747 748 749 750 751 752 753 754 755 756 757 758 759 760 761 762 763 764 765 766 767 768 769 770 771 772 773 774 775 776 777 778 779 780 781 782 783 784 785 786 787 788 789 790 791 792 793 794 795 796 797 798 799 800 801 802 803 804 805 806 807 808 809 810 811 812 813 814 815 816 817 818 819 820 821 822 823 824 825 826 827 828 829 830 831 832 833 834 835 836 837 838 839 840 841 842 843 844 845 846 847 848 849 850 851 852 853 854 855 856 857 858 859 860 861 862 863 864 865 866 867 868 869 870 871 872 873 874 875 876 877 878 879 880 881 882 883 884 885 886 887 888 889 890 891 892 893 894 895 896 897 898 899 900 901 902 903 904 905 906 907 908 909 910 911 912 913 914 915 916 917 918 919 920 921 922 923 924 925 926 927 928 929 930 931 932 933 934 935 936 937 938 939 940 941 942 943 944 945 946 947 948 949 950 951 952 953 954 955 956 957 958 959 960 961 962 963 964 965 966 967 968 969 970 971 972 973 974 975 976 977 978 979 980 981 982 983 984 985 986 987 988 989 990 991 992 993 994 995 996 997 998 999 1000 1001 1002 1003 1004 1005 1006 1007 1008 1009 1010 1011 1012 1013 1014 1015 1016 1017 1018 1019 1020 1021 1022 1023 1024 1025 1026 1027 1028 1029 1030 1031 1032 1033 1034 1035 1036 1037 1038 1039 1040 1041 1042 1043 1044 1045 1046 1047 1048 1049 1050 1051 1052 1053 1054 1055 1056 1057 1058 1059 1060 1061 1062 1063 1064 1065 1066 1067 1068 1069 1070 1071 1072 1073 1074 1075 1076 1077 1078 1079 1080 1081 1082 1083 1084 1085 1086 1087 1088 1089 1090 1091 1092 1093 1094 1095 1096 1097 1098 1099 1100 1101 1102 1103 1104 1105 1106 1107 1108 1109 1110 1111 1112 1113 1114 1115 1116 1117 1118 1119 1120 1121 1122 1123 1124 1125 1126 1127 1128 1129 1130 1131 1132 1133 1134 1135 1136 1137 1138 1139 1140 1141 1142 1143 1144 1145 1146 1147 1148 1149 1150 1151 1152 1213 1214 1215 1216 1217 1218 1219 1220 1221 1222 1223 1224 1225 1226 1227 1228 1229 1230 1231 1232 1233 1234 1235 1236 1237 1238 1239 1240 1241 1242 1243 1244 1245 1246 1247 1248 1249 1250 1251 1252 1253 1254 1315 1316 1317 1318 1319 1320 1321 1322 1323 1324 1325 1326 1327 1328 1329 1330 1331 1332 1333 1334 1335 1336 1337 1338 1339 1340 1341 1342 1343 1344 1345 1346 1347 1348 1349 1350 1351 1352 1353 1354 1355 1356 0
522 523 524 525 526 527 528 529 530 531 532 533 534 535 536 537 538 539 540 541 542 543 544 545 546 547 548 549 550 551 552 553 554 555 556 557 558 559 560 561 562 563 564 565 566 567 568 569 570 571 572 573 574 575 576 577 578 579 580 581 582 583 584 585 586 587 588 589 590 591 592 593 594 595 596 597 598 599 600 601 602 603 604 605 606 607 608 609 610 611 612 613 614 615 616 617 618 619 620 621 622 623 624 625 626 627 628 629 630 631 632 633 634 635 636 637 638 639 640 641 642 643 644 645 646 647 648 649 650 651 652 653 654 655 656 657 658 659 660 661 662 663 664 665 666 667 668 669 670 671 672 673 674 675 676 677 678 679 680 681 682 683 684 685 686 687 688 689 690 691 692 693 694 695 696 697 698 699 700 701 702 703 704 705 706 707 708 709 710 711 712 713 714 715 716 717 718 719 720 721 722 723 724 725 726 727 728 729 730 731 732 733 734 735 736 737 738 739 740 741 742 743 744 745 746 747 748 749 750 751 752 753 754 755 756 757 758 759 760 761 762 763 764 765 766 767 768 769 770 771 772 773 774 775 776 777 778 779 780 781 782 783 784 785 786 787 788 789 790 791 792 793 794 795 796 797 798 799 800 801 802 803 804 805 806 807 808 809 810 811 812 813 814 815 816 817 818 819 820 821 822 823 824 825 826 827 828 829 830 831 832 833 834 835 836 837 838 839 840 841 842 843 844 845 846 847 848 849 850 851 852 853 854 855 856 857 858 859 860 861 862 863 864 865 866 867 868 869 870 871 872 873 874 875 876 877 878 879 880 881 882 883 884 885 886 887 888 889 890 891 892 893 894 895 896 897 898 899 900 901 902 903 904 905 906 907 908 909 910 911 912 913 914 915 916 917 918 919 920 921 922 923 924 925 926 927 928 929 930 931 932 933 934 935 936 937 938 939 940 941 942 943 944 945 946 947 948 949 950 951 952 953 954 955 956 957 958 959 960 961 962 963 964 965 966 967 968 969 970 971 972 973 974 975 976 977 978 979 980 981 982 983 984 985 986 987 988 989 990 991 992 993 994 995 996 997 998 999 1000 1001 1002 1003 1004 1005 1006 1007 1008 1009 1010 1011 1012 1013 1014 1015 1016 1017 1018 1019 1020 1021 1022 1023 1024 1025 1026 1027 1028 1029 1030 1031 1032 1033 1034 1035 1036 1037 1038 1039 1040 1041 1042 1043 1044 1045 1046 1047 1048 1049 1050 1051 1052 1053 1054 1055 1056 1057 1058 1059 1060 1061 1062 1063 1064 1065 1066 1067 1068 1069 1070 1071 1072 1073 1074 1075 1076 1077 1078 1079 1080 1081 1082 1083 1084 1085 1086 1087 1088 1089 1090 1091 1092 1093 1094 1095 1096 1097 1098 1099 1100 1101 1102 1103 1104 1105 1106 1107 1108 1109 1110 1111 1112 1113 1114 1115 1116 1117 1118 1119 1120 1121 1122 1123 1124 1125 1126 1127 1128 1129 1130 1131 1132 1133 1134 1135 1136 1137 1138 1139 1140 1141 1142 1143 1144 1145 1146 1147 1148 1149 1150 1151 1152 0
-522 500 501 502 503 504 505 506 507 508 509 510 511 512 513 514 515 516 517 518 519 520 521 0
-523 124 0
-523 -125 0
-524 38 0
-524 -125 0
-525 124 0
-525 38 0
-526 123 0
-526 -124 0
-527 37 0
-527 -124 0
-528 123 0
-528 37 0
-529 122 0
-529 -123 0
-530 36 0
-530 -123 0
-531 122 0
-531 36 0
-532 121 0
-532 -122 0
-533 35 0
-533 -122 0
-534 121 0
-534 35 0
-535 33 0
-535 -121 0
-536 34 0
-536 -121 0
-537 33 0
-537 34 0
-538 119 0
-538 -120 0
-539 43 0
-539 -120 0
-540 119 0
-540 43 0
-541 118 0
-541 -119 0
-542 42 0
-542 -119 0
-543 118 0
-543 42 0
-544 117 0
-544 -118 0
-545 41 0
-545 -118 0
-546 117 0
-546 41 0
-547 39 0
-547 -117 0
-548 40 0
-548 -117 0
-549 39 0
-549 40 0
-550 33 0
-550 43 0
-551 33 0
-551 42 0
-552 33 0
-552 41 0
-553 33 0
-553 40 0
-554 33 0
-554 39 0
-555 115 0
-555 -116 0
-556 47 0
-556 -116 0
-557 115 0
-557 47 0
-558 114 0
-558 -115 0
-559 46 0
-559 -115 0
-560 114 0
-560 46 0
-561 44 0
-561 -114 0
-562 45 0
-562 -114 0
-563 44 0
-563 45 0
-564 113 0
-564 47 0
-565 113 0
-565 46 0
-566 113 0
-566 45 0
-567 113 0
-567 44 0
-568 34 0
-568 -113 0
-569 39 0
-569 -113 0
-570 34 0
-570 39 0
-571 111 0
-571 -112 0
-572 50 0
-572 -112 0
-573 111 0
-573 50 0
-574 48 0
-574 -111 0
-575 49 0
-575 -111 0
-576 48 0
-576 49 0
-577 110 0
-577 50 0
-578 110 0
-578 49 0
-579 110 0
-579 48 0
-580 109 0
-580 -110 0
-581 44 0
-581 -110 0
-582 109 0
-582 44 0
-583 35 0
-583 -109 0
-584 40 0
-584 -109 0
-585 35 0
-585 40 0
-586 51 0
-586 -108 0
-587 52 0
-587 -108 0
-588 51 0
-588 52 0
-589 107 0
-589 52 0
-590 107 0
-590 51 0
-591 106 0
-591 -107 0
-592 48 0
-592 -107 0
-593 106 0
-593 48 0
-594 105 0
-594 -106 0
-595 45 0
-595 -106 0
-596 105 0
-596 45 0
-597 36 0
-597 -105 0
-598 41 0
-598 -105 0
-599 36 0
-599 41 0
-600 104 0
-600 53 0
-601 103 0
-601 -104 0
-602 51 0
-602 -104 0
-603 103 0
-603 51 0
-604 102 0
-604 -103 0
-605 49 0
-605 -103 0
-606 102 0
-606 49 0
-607 101 0
-607 -102 0
-608 46 0
-608 -102 0
-609 101 0
-609 46 0
-610 37 0
-610 -101 0
-611 42 0
-611 -101 0
-612 37 0
-612 42 0
-613 99 0
-613 -100 0
-614 53 0
-614 -100 0
-615 99 0
-615 53 0
-616 98 0
-616 -99 0
-617 52 0
-617 -99 0
-618 98 0
-618 52 0
-619 97 0
-619 -98 0
-620 50 0
-620 -98 0
-621 97 0
-621 50 0
-622 96 0
-622 -97 0
-623 47 0
-623 -97 0
-624 96 0
-624 47 0
-625 38 0
-625 -96 0
-626 43 0
-626 -96 0
-627 38 0
-627 43 0
-628 154 0
-628 -155 0
-629 33 0
-629 -155 0
-630 154 0
-630 33 0
-631 153 0
-631 -154 0
-632 34 0
-632 -154 0
-633 153 0
-633 34 0
-634 152 0
-634 -153 0
-635 35 0
-635 -153 0
-636 152 0
-636 35 0
-637 151 0
-637 -152 0
-638 36 0
-638 -152 0
-639 151 0
-639 36 0
-640 38 0
-640 -151 0
-641 37 0
-641 -151 0
-642 38 0
-642 37 0
-643 150 0
-643 33 0
-644 149 0
-644 -150 0
-645 39 0
-645 -150 0
-646 149 0
-646 39 0
-647 148 0
-647 -149 0
-648 40 0
-648 -149 0
-649 148 0
-649 40 0
-650 147 0
-650 -148 0
-651 41 0
-651 -148 0
-652 147 0
-652 41 0
-653 43 0
-653 -147 0
-654 42 0
-654 -147 0
-655 43 0
-655 42 0
-656 146 0
-656 34 0
-657 146 0
-657 39 0
-658 145 0
-658 -146 0
-659 44 0
-659 -146 0
-660 145 0
-660 44 0
-661 144 0
-661 -145 0
-662 45 0
-662 -145 0
-663 144 0
-663 45 0
-664 47 0
-664 -144 0
-665 46 0
-665 -144 0
-666 47 0
-666 46 0
-667 39 0
-667 -143 0
-668 34 0
-668 -143 0
-669 39 0
-669 34 0
-670 142 0
-670 35 0
-671 142 0
-671 40 0
-672 142 0
-672 44 0
-673 141 0
-673 -142 0
-674 48 0
-674 -142 0
-675 141 0
-675 48 0
-676 50 0
-676 -141 0
-677 49 0
-677 -141 0
-678 50 0
-678 49 0
-679 139 0
-679 -140 0
-680 35 0
-680 -140 0
-681 139 0
-681 35 0
-682 44 0
-682 -139 0
-683 40 0
-683 -139 0
-684 44 0
-684 40 0
-685 138 0
-685 36 0
-686 138 0
-686 41 0
-687 138 0
-687 45 0
-688 138 0
-688 48 0
-689 52 0
-689 -138 0
-690 51 0
-690 -138 0
-691 52 0
-691 51 0
-692 136 0
-692 -137 0
-693 36 0
-693 -137 0
-694 136 0
-694 36 0
-695 135 0
-695 -136 0
-696 41 0
-696 -136 0
-697 135 0
-697 41 0
-698 48 0
-698 -135 0
-699 45 0
-699 -135 0
-700 48 0
-700 45 0
-701 53 0
-701 37 0
-702 53 0
-702 42 0
-703 53 0
-703 46 0
-704 53 0
-704 49 0
-705 53 0
-705 51 0
-706 133 0
-706 -134 0
-707 37 0
-707 -134 0
-708 133 0
-708 37 0
-709 132 0
-709 -133 0
-710 42 0
-710 -133 0
-711 132 0
-711 42 0
-712 131 0
-712 -132 0
-713 46 0
-713 -132 0
-714 131 0
-714 46 0
-715 51 0
-715 -131 0
-716 49 0
-716 -131 0
-717 51 0
-717 49 0
-718 129 0
-718 -130 0
-719 38 0
-719 -130 0
-720 129 0
-720 38 0
-721 128 0
-721 -129 0
-722 43 0
-722 -129 0
-723 128 0
-723 43 0
-724 127 0
-724 -128 0
-725 47 0
-725 -128 0
-726 127 0
-726 47 0
-727 126 0
-727 -127 0
-728 50 0
-728 -127 0
-729 126 0
-729 50 0
-730 53 0
-730 -126 0
-731 52 0
-731 -126 0
-732 53 0
-732 52 0
-733 1181 0
-733 -1182 0
-734 59 0
-734 -1182 0
-735 1181 0
-735 59 0
-736 1180 0
-736 -1181 0
-737 58 0
-737 -1181 0
-738 1180 0
-738 58 0
-739 1179 0
-739 -1180 0
-740 57 0
-740 -1180 0
-741 1179 0
-741 57 0
-742 1178 0
-742 -1179 0
-743 56 0
-743 -1179 0
-744 1178 0
-744 56 0
-745 54 0
-745 -1178 0
-746 55 0
-746 -1178 0
-747 54 0
-747 55 0
-748 1176 0
-748 -1177 0
-749 64 0
-749 -1177 0
-750 1176 0
-750 64 0
-751 1175 0
-751 -1176 0
-752 63 0
-752 -1176 0
-753 1175 0
-753 63 0
-754 1174 0
-754 -1175 0
-755 62 0
-755 -1175 0
-756 1174 0
-756 62 0
-757 60 0
-757 -1174 0
-758 61 0
-758 -1174 0
-759 60 0
-759 61 0
-760 54 0
-760 64 0
-761 54 0
-761 63 0
-762 54 0
-762 62 0
-763 54 0
-763 61 0
-764 54 0
-764 60 0
-765 1172 0
-765 -1173 0
-766 68 0
-766 -1173 0
-767 1172 0
-767 68 0
-768 1171 0
-768 -1172 0
-769 67 0
-769 -1172 0
-770 1171 0
-770 67 0
-771 65 0
-771 -1171 0
-772 66 0
-772 -1171 0
-773 65 0
-773 66 0
-774 1170 0
-774 68 0
-775 1170 0
-775 67 0
-776 1170 0
-776 66 0
-777 1170 0
-777 65 0
-778 55 0
-778 -1170 0
-779 60 0
-779 -1170 0
-780 55 0
-780 60 0
-781 1168 0
-781 -1169 0
-782 71 0
-782 -1169 0
-783 1168 0
-783 71 0
-784 69 0
-784 -1168 0
-785 70 0
-785 -1168 0
-786 69 0
-786 70 0
-787 1167 0
-787 71 0
-788 1167 0
-788 70 0
-789 1167 0
-789 69 0
-790 1166 0
-790 -1167 0
-791 65 0
-791 -1167 0
-792 1166 0
-792 65 0
-793 56 0
-793 -1166 0
-794 61 0
-794 -1166 0
-795 56 0
-795 61 0
-796 72 0
-796 -1165 0
-797 73 0
-797 -1165 0
-798 72 0
-798 73 0
-799 1164 0
-799 73 0
-800 1164 0
-800 72 0
-801 1163 0
-801 -1164 0
-802 69 0
-802 -1164 0
-803 1163 0
-803 69 0
-804 1162 0
-804 -1163 0
-805 66 0
-805 -1163 0
-806 1162 0
-806 66 0
-807 57 0
-807 -1162 0
-808 62 0
-808 -1162 0
-809 57 0
-809 62 0
-810 1161 0
-810 74 0
-811 1160 0
-811 -1161 0
-812 72 0
-812 -1161 0
-813 1160 0
-813 72 0
-814 1159 0
-814 -1160 0
-815 70 0
-815 -1160 0
-816 1159 0
-816 70 0
-817 1158 0
-817 -1159 0
-818 67 0
-818 -1159 0
-819 1158 0
-819 67 0
-820 58 0
-820 -1158 0
-821 63 0
-821 -1158 0
-822 58 0
-822 63 0
-823 1156 0
-823 -1157 0
-824 74 0
-824 -1157 0
-825 1156 0
-825 74 0
-826 1155 0
-826 -1156 0
-827 73 0
-827 -1156 0
-828 1155 0
-828 73 0
-829 1154 0
-829 -1155 0
-830 71 0
-830 -1155 0
-831 1154 0
-831 71 0
-832 1153 0
-832 -1154 0
-833 68 0
-833 -1154 0
-834 1153 0
-834 68 0
-835 59 0
-835 -1153 0
-836 64 0
-836 -1153 0
-837 59 0
-837 64 0
-838 1211 0
-838 -1212 0
-839 54 0
-839 -1212 0
-840 1211 0
-840 54 0
-841 1210 0
-841 -1211 0
-842 55 0
-842 -1211 0
-843 1210 0
-843 55 0
-844 1209 0
-844 -1210 0
-845 56 0
-845 -1210 0
-846 1209 0
-846 56 0
-847 1208 0
-847 -1209 0
-848 57 0
-848 -1209 0
-849 1208 0
-849 57 0
-850 59 0
-850 -1208 0
-851 58 0
-851 -1208 0
-852 59 0
-852 58 0
-853 1207 0
-853 54 0
-854 1206 0
-854 -1207 0
-855 60 0
-855 -1207 0
-856 1206 0
-856 60 0
-857 1205 0
-857 -1206 0
-858 61 0
-858 -1206 0
-859 1205 0
-859 61 0
-860 1204 0
-860 -1205 0
-861 62 0
-861 -1205 0
-862 1204 0
-862 62 0
-863 64 0
-863 -1204 0
-864 63 0
-864 -1204 0
-865 64 0
-865 63 0
-866 1203 0
-866 55 0
-867 1203 0
-867 60 0
-868 1202 0
-868 -1203 0
-869 65 0
-869 -1203 0
-870 1202 0
-870 65 0
-871 1201 0
-871 -1202 0
-872 66 0
-872 -1202 0
-873 1201 0
-873 66 0
-874 68 0
-874 -1201 0
-875 67 0
-875 -1201 0
-876 68 0
-876 67 0
-877 60 0
-877 -1200 0
-878 55 0
-878 -1200 0
-879 60 0
-879 55 0
-880 1199 0
-880 56 0
-881 1199 0
-881 61 0
-882 1199 0
-882 65 0
-883 1198 0
-883 -1199 0
-884 69 0
-884 -1199 0
-885 1198 0
-885 69 0
-886 71 0
-886 -1198 0
-887 70 0
-887 -1198 0
-888 71 0
-888 70 0
-889 1196 0
-889 -1197 0
-890 56 0
-890 -1197 0
-891 1196 0
-891 56 0
-892 65 0
-892 -1196 0
-893 61 0
-893 -1196 0
-894 65 0
-894 61 0
-895 1195 0
-895 57 0
-896 1195 0
-896 62 0
-897 1195 0
-897 66 0
-898 1195 0
-898 69 0
-899 73 0
-899 -1195 0
-900 72 0
-900 -1195 0
-901 73 0
-901 72 0
-902 1193 0
-902 -1194 0
-903 57 0
-903 -1194 0
-904 1193 0
-904 57 0
-905 1192 0
-905 -1193 0
-906 62 0
-906 -1193 0
-907 1192 0
-907 62 0
-908 69 0
-908 -1192 0
-909 66 0
-909 -1192 0
-910 69 0
-910 66 0
-911 74 0
-911 58 0
-912 74 0
-912 63 0
-913 74 0
-913 67 0
-914 74 0
-914 70 0
-915 74 0
-915 72 0
-916 1190 0
-916 -1191 0
-917 58 0
-917 -1191 0
-918 1190 0
-918 58 0
-919 1189 0
-919 -1190 0
-920 63 0
-920 -1190 0
-921 1189 0
-921 63 0
-922 1188 0
-922 -1189 0
-923 67 0
-923 -1189 0
-924 1188 0
-924 67 0
-925 72 0
-925 -1188 0
-926 70 0
-926 -1188 0
-927 72 0
-927 70 0
-928 1186 0
-928 -1187 0
-929 59 0
-929 -1187 0
-930 1186 0
-930 59 0
-931 1185 0
-931 -1186 0
-932 64 0
-932 -1186 0
-933 1185 0
-933 64 0
-934 1184 0
-934 -1185 0
-935 68 0
-935 -1185 0
-936 1184 0
-936 68 0
-937 1183 0
-937 -1184 0
-938 71 0
-938 -1184 0
-939 1183 0
-939 71 0
-940 74 0
-940 -1183 0
-941 73 0
-941 -1183 0
-942 74 0
-942 73 0
-943 1283 0
-943 -1284 0
-944 80 0
-944 -1284 0
-945 1283 0
-945 80 0
-946 1282 0
-946 -1283 0
-947 79 0
-947 -1283 0
-948 1282 0
-948 79 0
-949 1281 0
-949 -1282 0
-950 78 0
-950 -1282 0
-951 1281 0
-951 78 0
-952 1280 0
-952 -1281 0
-953 77 0
-953 -1281 0
-954 1280 0
-954 77 0
-955 75 0
-955 -1280 0
-956 76 0
-956 -1280 0
-957 75 0
-957 76 0
-958 1278 0
-958 -1279 0
-959 85 0
-959 -1279 0
-960 1278 0
-960 85 0
-961 1277 0
-961 -1278 0
-962 84 0
-962 -1278 0
-963 1277 0
-963 84 0
-964 1276 0
-964 -1277 0
-965 83 0
-965 -1277 0
-966 1276 0
-966 83 0
-967 81 0
-967 -1276 0
-968 82 0
-968 -1276 0
-969 81 0
-969 82 0
-970 75 0
-970 85 0
-971 75 0
-971 84 0
-972 75 0
-972 83 0
-973 75 0
-973 82 0
-974 75 0
-974 81 0
-975 1274 0
-975 -1275 0
-976 89 0
-976 -1275 0
-977 1274 0
-977 89 0
-978 1273 0
-978 -1274 0
-979 88 0
-979 -1274 0
-980 1273 0
-980 88 0
-981 86 0
-981 -1273 0
-982 87 0
-982 -1273 0
-983 86 0
-983 87 0
-984 1272 0
-984 89 0
-985 1272 0
-985 88 0
-986 1272 0
-986 87 0
-987 1272 0
-987 86 0
-988 76 0
-988 -1272 0
-989 81 0
-989 -1272 0
-990 76 0
-990 81 0
-991 1270 0
-991 -1271 0
-992 92 0
-992 -1271 0
-993 1270 0
-993 92 0
-994 90 0
-994 -1270 0
-995 91 0
-995 -1270 0
-996 90 0
-996 91 0
-997 1269 0
-997 92 0
-998 1269 0
-998 91 0
-999 1269 0
-999 90 0
-1000 1268 0
-1000 -1269 0
-1001 86 0
-1001 -1269 0
-1002 1268 0
-1002 86 0
-1003 77 0
-1003 -1268 0
-1004 82 0
-1004 -1268 0
-1005 77 0
-1005 82 0
-1006 93 0
-1006 -1267 0
-1007 94 0
-1007 -1267 0
-1008 93 0
-1008 94 0
-1009 1266 0
-1009 94 0
-1010 1266 0
-1010 93 0
-1011 1265 0
-1011 -1266 0
-1012 90 0
-1012 -1266 0
-1013 1265 0
-1013 90 0
-1014 1264 0
-1014 -1265 0
-1015 87 0
-1015 -1265 0
-1016 1264 0
-1016 87 0
-1017 78 0
-1017 -1264 0
-1018 83 0
-1018 -1264 0
-1019 78 0
-1019 83 0
-1020 1263 0
-1020 95 0
-1021 1262 0
-1021 -1263 0
-1022 93 0
-1022 -1263 0
-1023 1262 0
-1023 93 0
-1024 1261 0
-1024 -1262 0
-1025 91 0
-1025 -1262 0
-1026 1261 0
-1026 91 0
-1027 1260 0
-1027 -1261 0
-1028 88 0
-1028 -1261 0
-1029 1260 0
-1029 88 0
-1030 79 0
-1030 -1260 0
-1031 84 0
-1031 -1260 0
-1032 79 0
-1032 84 0
-1033 1258 0
-1033 -1259 0
-1034 95 0
-1034 -1259 0
-1035 1258 0
-1035 95 0
-1036 1257 0
-1036 -1258 0
-1037 94 0
-1037 -1258 0
-1038 1257 0
-1038 94 0
-1039 1256 0
-1039 -1257 0
-1040 92 0
-1040 -1257 0
-1041 1256 0
-1041 92 0
-1042 1255 0
-1042 -1256 0
-1043 89 0
-1043 -1256 0
-1044 1255 0
-1044 89 0
-1045 80 0
-1045 -1255 0
-1046 85 0
-1046 -1255 0
-1047 80 0
-1047 85 0
-1048 1313 0
-1048 -1314 0
-1049 75 0
-1049 -1314 0
-1050 1313 0
-1050 75 0
-1051 1312 0
-1051 -1313 0
-1052 76 0
-1052 -1313 0
-1053 1312 0
-1053 76 0
-1054 1311 0
-1054 -1312 0
-1055 77 0
-1055 -1312 0
-1056 1311 0
-1056 77 0
-1057 1310 0
-1057 -1311 0
-1058 78 0
-1058 -1311 0
-1059 1310 0
-1059 78 0
-1060 80 0
-1060 -1310 0
-1061 79 0
-1061 -1310 0
-1062 80 0
-1062 79 0
-1063 1309 0
-1063 75 0
-1064 1308 0
-1064 -1309 0
-1065 81 0
-1065 -1309 0
-1066 1308 0
-1066 81 0
-1067 1307 0
-1067 -1308 0
-1068 82 0
-1068 -1308 0
-1069 1307 0
-1069 82 0
-1070 1306 0
-1070 -1307 0
-1071 83 0
-1071 -1307 0
-1072 1306 0
-1072 83 0
-1073 85 0
-1073 -1306 0
-1074 84 0
-1074 -1306 0
-1075 85 0
-1075 84 0
-1076 1305 0
-1076 76 0
-1077 1305 0
-1077 81 0
-1078 1304 0
-1078 -1305 0
-1079 86 0
-1079 -1305 0
-1080 1304 0
-1080 86 0
-1081 1303 0
-1081 -1304 0
-1082 87 0
-1082 -1304 0
-1083 1303 0
-1083 87 0
-1084 89 0
-1084 -1303 0
-1085 88 0
-1085 -1303 0
-1086 89 0
-1086 88 0
-1087 81 0
-1087 -1302 0
-1088 76 0
-1088 -1302 0
-1089 81 0
-1089 76 0
-1090 1301 0
-1090 77 0
-1091 1301 0
-1091 82 0
-1092 1301 0
-1092 86 0
-1093 1300 0
-1093 -1301 0
-1094 90 0
-1094 -1301 0
-1095 1300 0
-1095 90 0
-1096 92 0
-1096 -1300 0
-1097 91 0
-1097 -1300 0
-1098 92 0
-1098 91 0
-1099 1298 0
-1099 -1299 0
-1100 77 0
-1100 -1299 0
-1101 1298 0
-1101 77 0
-1102 86 0
-1102 -1298 0
-1103 82 0
-1103 -1298 0
-1104 86 0
-1104 82 0
-1105 1297 0
-1105 78 0
-1106 1297 0
-1106 83 0
-1107 1297 0
-1107 87 0
-1108 1297 0
-1108 90 0
-1109 94 0
-1109 -1297 0
-1110 93 0
-1110 -1297 0
-1111 94 0
-1111 93 0
-1112 1295 0
-1112 -1296 0
-1113 78 0
-1113 -1296 0
-1114 1295 0
-1114 78 0
-1115 1294 0
-1115 -1295 0
-1116 83 0
-1116 -1295 0
-1117 1294 0
-1117 83 0
-1118 90 0
-1118 -1294 0
-1119 87 0
-1119 -1294 0
-1120 90 0
-1120 87 0
-1121 95 0
-1121 79 0
-1122 95 0
-1122 84 0
-1123 95 0
-1123 88 0
-1124 95 0
-1124 91 0
-1125 95 0
-1125 93 0
-1126 1292 0
-1126 -1293 0
-1127 79 0
-1127 -1293 0
-1128 1292 0
-1128 79 0
-1129 1291 0
-1129 -1292 0
-1130 84 0
-1130 -1292 0
-1131 1291 0
-1131 84 0
-1132 1290 0
-1132 -1291 0
-1133 88 0
-1133 -1291 0
-1134 1290 0
-1134 88 0
-1135 93 0
-1135 -1290 0
-1136 91 0
-1136 -1290 0
-1137 93 0
-1137 91 0
-1138 1288 0
-1138 -1289 0
-1139 80 0
-1139 -1289 0
-1140 1288 0
-1140 80 0
-1141 1287 0
-1141 -1288 0
-1142 85 0
-1142 -1288 0
-1143 1287 0
-1143 85 0
-1144 1286 0
-1144 -1287 0
-1145 89 0
-1145 -1287 0
-1146 1286 0
-1146 89 0
-1147 1285 0
-1147 -1286 0
-1148 92 0
-1148 -1286 0
-1149 1285 0
-1149 92 0
-1150 95 0
-1150 -1285 0
-1151 94 0
-1151 -1285 0
-1152 95 0
-1152 94 0
-500 1 -9 0
-500 -1 9 161 160 159 158 157 156 0
-500 -161 499 0
-500 -33 -1 2 161 0
-500 -160 498 0
-500 -34 -1 3 160 0
-500 -159 497 0
-500 -35 -1 4 159 0
-500 -158 496 0
-500 -36 -1 5 158 0
-500 -157 495 0
-500 -37 -1 6 157 0
-500 -156 494 0
-500 -38 -1 7 156 0
-500 2 -10 162 0
-500 -2 10 167 166 165 164 163 0
-500 -162 493 0
-500 -33 -1 2 162 0
-500 -167 492 0
-500 -39 -2 3 167 0
-500 -166 491 0
-500 -40 -2 4 166 0
-500 -165 490 0
-500 -41 -2 5 165 0
-500 -164 489 0
-500 -42 -2 6 164 0
-500 -163 488 0
-500 -43 -2 7 163 0
-500 3 -11 169 168 0
-500 -3 11 173 172 171 170 0
-500 -169 487 0
-500 -34 -1 3 169 0
-500 -168 486 0
-500 -39 -2 3 168 0
-500 -173 485 0
-500 -44 -3 4 173 0
-500 -172 484 0
-500 -45 -3 5 172 0
-500 -171 483 0
-500 -46 -3 6 171 0
-500 -170 482 0
-500 -47 -3 7 170 0
-500 4 -12 176 175 174 0
-500 -4 12 179 178 177 0
-500 -176 481 0
-500 -35 -1 4 176 0
-500 -175 480 0
-500 -40 -2 4 175 0
-500 -174 479 0
-500 -44 -3 4 174 0
-500 -179 478 0
-500 -48 -4 5 179 0
-500 -178 477 0
-500 -49 -4 6 178 0
-500 -177 476 0
-500 -50 -4 7 177 0
-500 5 -13 183 182 181 180 0
-500 -5 13 185 184 0
-500 -183 475 0
-500 -36 -1 5 183 0
-500 -182 474 0
-500 -41 -2 5 182 0
-500 -181 473 0
-500 -45 -3 5 181 0
-500 -180 472 0
-500 -48 -4 5 180 0
-500 -185 471 0
-500 -51 -5 6 185 0
-500 -184 470 0
-500 -52 -5 7 184 0
-500 6 -14 190 189 188 187 186 0
-500 -6 14 191 0
-500 -190 469 0
-500 -37 -1 6 190 0
-500 -189 468 0
-500 -42 -2 6 189 0
-500 -188 467 0
-500 -46 -3 6 188 0
-500 -187 466 0
-500 -49 -4 6 187 0
-500 -186 465 0
-500 -51 -5 6 186 0
-500 -191 464 0
-500 -53 -6 7 191 0
-500 7 -15 197 196 195 194 193 192 0
-500 -7 15 0
-500 -197 463 0
-500 -38 -1 7 197 0
-500 -196 462 0
-500 -43 -2 7 196 0
-500 -195 461 0
-500 -47 -3 7 195 0
-500 -194 460 0
-500 -50 -4 7 194 0
-500 -193 459 0
-500 -52 -5 7 193 0
-500 -192 458 0
-500 -53 -6 7 192 0
-500 8 -16 0
-500 -8 16 0
-500 456 457 0
-500 454 455 0
-500 452 453 0
-500 450 451 0
-500 448 449 0
-500 446 447 0
-500 444 445 0
-500 442 443 0
-500 440 441 0
-500 438 439 0
-500 436 437 0
-500 434 435 0
-500 432 433 0
-500 430 431 0
-500 428 429 0
-500 426 427 0
-500 424 425 0
-500 422 423 0
-500 420 421 0
-500 418 419 0
-500 416 417 0
-500 394 395 396 397 398 399 400 401 402 403 404 405 406 407 408 409 410 411 412 413 414 415 0
-501 0
-502 0
-503 0
-504 0
-505 0
-506 0
-507 0
-508 0
-509 0
-510 0
-511 0
-512 0
-513 0
-514 0
-515 0
-516 0
-517 0
-518 0
-519 0
-520 0
-521 0
-499 33 0
-499 1 0
-499 -2 0
-498 34 0
-498 1 0
-498 -3 0
-497 35 0
-497 1 0
-497 -4 0
-496 36 0
-496 1 0
-496 -5 0
-495 37 0
-495 1 0
-495 -6 0
-494 38 0
-494 1 0
-494 -7 0
-493 33 0
-493 1 0
-493 -2 0
-492 39 0
-492 2 0
-492 -3 0
-491 40 0
-491 2 0
-491 -4 0
-490 41 0
-490 2 0
-490 -5 0
-489 42 0
-489 2 0
-489 -6 0
-488 43 0
-488 2 0
-488 -7 0
-487 34 0
-487 1 0
-487 -3 0
-486 39 0
-486 2 0
-486 -3 0
-485 44 0
-485 3 0
-485 -4 0
-484 45 0
-484 3 0
-484 -5 0
-483 46 0
-483 3 0
-483 -6 0
-482 47 0
-482 3 0
-482 -7 0
-481 35 0
-481 1 0
-481 -4 0
-480 40 0
-480 2 0
-480 -4 0
-479 44 0
-479 3 0
-479 -4 0
-478 48 0
-478 4 0
-478 -5 0
-477 49 0
-477 4 0
-477 -6 0
-476 50 0
-476 4 0
-476 -7 0
-475 36 0
-475 1 0
-475 -5 0
-474 41 0
-474 2 0
-474 -5 0
-473 45 0
-473 3 0
-473 -5 0
-472 48 0
-472 4 0
-472 -5 0
-471 51 0
-471 5 0
-471 -6 0
-470 52 0
-470 5 0
-470 -7 0
-469 37 0
-469 1 0
-469 -6 0
-468 42 0
-468 2 0
-468 -6 0
-467 46 0
-467 3 0
-467 -6 0
-466 49 0
-466 4 0
-466 -6 0
-465 51 0
-465 5 0
-465 -6 0
-464 53 0
-464 6 0
-464 -7 0
-463 38 0
-463 1 0
-463 -7 0
-462 43 0
-462 2 0
-462 -7 0
-461 47 0
-461 3 0
-461 -7 0
-460 50 0
-460 4 0
-460 -7 0
-459 52 0
-459 5 0
-459 -7 0
-458 53 0
-458 6 0
-458 -7 0
-456 -33 -1 2 0
-457 -9 0
-457 10 0
-454 -34 -1 3 0
-455 -9 0
-455 11 0
-452 -35 -1 4 0
-453 -9 0
-453 12 0
-450 -36 -1 5 0
-451 -9 0
-451 13 0
-448 -37 -1 6 0
-449 -9 0
-449 14 0
-446 -38 -1 7 0
-447 -9 0
-447 15 0
-444 -39 -2 3 0
-445 -10 0
-445 11 0
-442 -40 -2 4 0
-443 -10 0
-443 12 0
-440 -41 -2 5 0
-441 -10 0
-441 13 0
-438 -42 -2 6 0
-439 -10 0
-439 14 0
-436 -43 -2 7 0
-437 -10 0
-437 15 0
-434 -44 -3 4 0
-435 -11 0
-435 12 0
-432 -45 -3 5 0
-433 -11 0
-433 13 0
-430 -46 -3 6 0
-431 -11 0
-431 14 0
-428 -47 -3 7 0
-429 -11 0
-429 15 0
-426 -48 -4 5 0
-427 -12 0
-427 13 0
-424 -49 -4 6 0
-425 -12 0
-425 14 0
-422 -50 -4 7 0
-423 -12 0
-423 15 0
-420 -51 -5 6 0
-421 -13 0
-421 14 0
-418 -52 -5 7 0
-419 -13 0
-419 15 0
-416 -53 -6 7 0
-417 -14 0
-417 15 0
-394 9 -17 0
-394 -9 17 1218 1217 1216 1215 1214 1213 0
-394 -1218 393 0
-394 -54 -9 10 1218 0
-394 -1217 392 0
-394 -55 -9 11 1217 0
-394 -1216 391 0
-394 -56 -9 12 1216 0
-394 -1215 390 0
-394 -57 -9 13 1215 0
-394 -1214 389 0
-394 -58 -9 14 1214 0
-394 -1213 388 0
-394 -59 -9 15 1213 0
-394 10 -18 1219 0
-394 -10 18 1224 1223 1222 1221 1220 0
-394 -1219 387 0
-394 -54 -9 10 1219 0
-394 -1224 386 0
-394 -60 -10 11 1224 0
-394 -1223 385 0
-394 -61 -10 12 1223 0
-394 -1222 384 0
-394 -62 -10 13 1222 0
-394 -1221 383 0
-394 -63 -10 14 1221 0
-394 -1220 382 0
-394 -64 -10 15 1220 0
-394 11 -19 1226 1225 0
-394 -11 19 1230 1229 1228 1227 0
-394 -1226 381 0
-394 -55 -9 11 1226 0
-394 -1225 380 0
-394 -60 -10 11 1225 0
-394 -1230 379 0
-394 -65 -11 12 1230 0
-394 -1229 378 0
-394 -66 -11 13 1229 0
-394 -1228 377 0
-394 -67 -11 14 1228 0
-394 -1227 376 0
-394 -68 -11 15 1227 0
-394 12 -20 1233 1232 1231 0
-394 -12 20 1236 1235 1234 0
-394 -1233 375 0
-394 -56 -9 12 1233 0
-394 -1232 374 0
-394 -61 -10 12 1232 0
-394 -1231 373 0
-394 -65 -11 12 1231 0
-394 -1236 372 0
-394 -69 -12 13 1236 0
-394 -1235 371 0
-394 -70 -12 14 1235 0
-394 -1234 370 0
-394 -71 -12 15 1234 0
-394 13 -21 1240 1239 1238 1237 0
-394 -13 21 1242 1241 0
-394 -1240 369 0
-394 -57 -9 13 1240 0
-394 -1239 368 0
-394 -62 -10 13 1239 0
-394 -1238 367 0
-394 -66 -11 13 1238 0
-394 -1237 366 0
-394 -69 -12 13 1237 0
-394 -1242 365 0
-394 -72 -13 14 1242 0
-394 -1241 364 0
-394 -73 -13 15 1241 0
-394 14 -22 1247 1246 1245 1244 1243 0
-394 -14 22 1248 0
-394 -1247 363 0
-394 -58 -9 14 1247 0
-394 -1246 362 0
-394 -63 -10 14 1246 0
-394 -1245 361 0
-394 -67 -11 14 1245 0
-394 -1244 360 0
-394 -70 -12 14 1244 0
-394 -1243 359 0
-394 -72 -13 14 1243 0
-394 -1248 358 0
-394 -74 -14 15 1248 0
-394 15 -23 1254 1253 1252 1251 1250 1249 0
-394 -15 23 0
-394 -1254 357 0
-394 -59 -9 15 1254 0
-394 -1253 356 0
-394 -64 -10 15 1253 0
-394 -1252 355 0
-394 -68 -11 15 1252 0
-394 -1251 354 0
-394 -71 -12 15 1251 0
-394 -1250 353 0
-394 -73 -13 15 1250 0
-394 -1249 352 0
-394 -74 -14 15 1249 0
-394 16 -24 0
-394 -16 24 0
-394 350 351 0
-394 348 349 0
-394 346 347 0
-394 344 345 0
-394 342 343 0
-394 340 341 0
-394 338 339 0
-394 336 337 0
-394 334 335 0
-394 332 333 0
-394 330 331 0
-394 328 329 0
-394 326 327 0
-394 324 325 0
-394 322 323 0
-394 320 321 0
-394 318 319 0
-394 316 317 0
-394 314 315 0
-394 312 313 0
-394 310 311 0
-394 288 289 290 291 292 293 294 295 296 297 298 299 300 301 302 303 304 305 306 307 308 309 0
-395 0
-396 0
-397 0
-398 0
-399 0
-400 0
-401 0
-402 0
-403 0
-404 0
-405 0
-406 0
-407 0
-408 0
-409 0
-410 0
-411 0
-412 0
-413 0
-414 0
-415 0
-393 54 0
-393 9 0
-393 -10 0
-392 55 0
-392 9 0
-392 -11 0
-391 56 0
-391 9 0
-391 -12 0
-390 57 0
-390 9 0
-390 -13 0
-389 58 0
-389 9 0
-389 -14 0
-388 59 0
-388 9 0
-388 -15 0
-387 54 0
-387 9 0
-387 -10 0
-386 60 0
-386 10 0
-386 -11 0
-385 61 0
-385 10 0
-385 -12 0
-384 62 0
-384 10 0
-384 -13 0
-383 63 0
-383 10 0
-383 -14 0
-382 64 0
-382 10 0
-382 -15 0
-381 55 0
-381 9 0
-381 -11 0
-380 60 0
-380 10 0
-380 -11 0
-379 65 0
-379 11 0
-379 -12 0
-378 66 0
-378 11 0
-378 -13 0
-377 67 0
-377 11 0
-377 -14 0
-376 68 0
-376 11 0
-376 -15 0
-375 56 0
-375 9 0
-375 -12 0
-374 61 0
-374 10 0
-374 -12 0
-373 65 0
-373 11 0
-373 -12 0
-372 69 0
-372 12 0
-372 -13 0
-371 70 0
-371 12 0
-371 -14 0
-370 71 0
-370 12 0
-370 -15 0
-369 57 0
-369 9 0
-369 -13 0
-368 62 0
-368 10 0
-368 -13 0
-367 66 0
-367 11 0
-367 -13 0
-366 69 0
-366 12 0
-366 -13 0
-365 72 0
-365 13 0
-365 -14 0
-364 73 0
-364 13 0
-364 -15 0
-363 58 0
-363 9 0
-363 -14 0
-362 63 0
-362 10 0
-362 -14 0
-361 67 0
-361 11 0
-361 -14 0
-360 70 0
-360 12 0
-360 -14 0
-359 72 0
-359 13 0
-359 -14 0
-358 74 0
-358 14 0
-358 -15 0
-357 59 0
-357 9 0
-357 -15 0
-356 64 0
-356 10 0
-356 -15 0
-355 68 0
-355 11 0
-355 -15 0
-354 71 0
-354 12 0
-354 -15 0
-353 73 0
-353 13 0
-353 -15 0
-352 74 0
-352 14 0
-352 -15 0
-350 -54 -9 10 0
-351 -17 0
-351 18 0
-348 -55 -9 11 0
-349 -17 0
-349 19 0
-346 -56 -9 12 0
-347 -17 0
-347 20 0
-344 -57 -9 13 0
-345 -17 0
-345 21 0
-342 -58 -9 14 0
-343 -17 0
-343 22 0
-340 -59 -9 15 0
-341 -17 0
-341 23 0
-338 -60 -10 11 0
-339 -18 0
-339 19 0
-336 -61 -10 12 0
-337 -18 0
-337 20 0
-334 -62 -10 13 0
-335 -18 0
-335 21 0
-332 -63 -10 14 0
-333 -18 0
-333 22 0
-330 -64 -10 15 0
-331 -18 0
-331 23 0
-328 -65 -11 12 0
-329 -19 0
-329 20 0
-326 -66 -11 13 0
-327 -19 0
-327 21 0
-324 -67 -11 14 0
-325 -19 0
-325 22 0
-322 -68 -11 15 0
-323 -19 0
-323 23 0
-320 -69 -12 13 0
-321 -20 0
-321 21 0
-318 -70 -12 14 0
-319 -20 0
-319 22 0
-316 -71 -12 15 0
-317 -20 0
-317 23 0
-314 -72 -13 14 0
-315 -21 0
-315 22 0
-312 -73 -13 15 0
-313 -21 0
-313 23 0
-310 -74 -14 15 0
-311 -22 0
-311 23 0
-288 17 -25 0
-288 -17 25 1320 1319 1318 1317 1316 1315 0
-288 -1320 287 0
-288 -75 -17 18 1320 0
-288 -1319 286 0
-288 -76 -17 19 1319 0
-288 -1318 285 0
-288 -77 -17 20 1318 0
-288 -1317 284 0
-288 -78 -17 21 1317 0
-288 -1316 283 0
-288 -79 -17 22 1316 0
-288 -1315 282 0
-288 -80 -17 23 1315 0
-288 18 -26 1321 0
-288 -18 26 1326 1325 1324 1323 1322 0
-288 -1321 281 0
-288 -75 -17 18 1321 0
-288 -1326 280 0
-288 -81 -18 19 1326 0
-288 -1325 279 0
-288 -82 -18 20 1325 0
-288 -1324 278 0
-288 -83 -18 21 1324 0
-288 -1323 277 0
-288 -84 -18 22 1323 0
-288 -1322 276 0
-288 -85 -18 23 1322 0
-288 19 -27 1328 1327 0
-288 -19 27 1332 1331 1330 1329 0
-288 -1328 275 0
-288 -76 -17 19 1328 0
-288 -1327 274 0
-288 -81 -18 19 1327 0
-288 -1332 273 0
-288 -86 -19 20 1332 0
-288 -1331 272 0
-288 -87 -19 21 1331 0
-288 -1330 271 0
-288 -88 -19 22 1330 0
-288 -1329 270 0
-288 -89 -19 23 1329 0
-288 20 -28 1335 1334 1333 0
-288 -20 28 1338 1337 1336 0
-288 -1335 269 0
-288 -77 -17 20 1335 0
-288 -1334 268 0
-288 -82 -18 20 1334 0
-288 -1333 267 0
-288 -86 -19 20 1333 0
-288 -1338 266 0
-288 -90 -20 21 1338 0
-288 -1337 265 0
-288 -91 -20 22 1337 0
-288 -1336 264 0
-288 -92 -20 23 1336 0
-288 21 -29 1342 1341 1340 1339 0
-288 -21 29 1344 1343 0
-288 -1342 263 0
-288 -78 -17 21 1342 0
-288 -1341 262 0
-288 -83 -18 21 1341 0
-288 -1340 261 0
-288 -87 -19 21 1340 0
-288 -1339 260 0
-288 -90 -20 21 1339 0
-288 -1344 259 0
-288 -93 -21 22 1344 0
-288 -1343 258 0
-288 -94 -21 23 1343 0
-288 22 -30 1349 1348 1347 1346 1345 0
-288 -22 30 1350 0
-288 -1349 257 0
-288 -79 -17 22 1349 0
-288 -1348 256 0
-288 -84 -18 22 1348 0
-288 -1347 255 0
-288 -88 -19 22 1347 0
-288 -1346 254 0
-288 -91 -20 22 1346 0
-288 -1345 253 0
-288 -93 -21 22 1345 0
-288 -1350 252 0
-288 -95 -22 23 1350 0
-288 23 -31 1356 1355 1354 1353 1352 1351 0
-288 -23 31 0
-288 -1356 251 0
-288 -80 -17 23 1356 0
-288 -1355 250 0
-288 -85 -18 23 1355 0
-288 -1354 249 0
-288 -89 -19 23 1354 0
-288 -1353 248 0
-288 -92 -20 23 1353 0
-288 -1352 247 0
-288 -94 -21 23 1352 0
-288 -1351 246 0
-288 -95 -22 23 1351 0
-288 24 -32 0
-288 -24 32 0
-288 244 245 0
-288 242 243 0
-288 240 241 0
-288 238 239 0
-288 236 237 0
-288 234 235 0
-288 232 233 0
-288 230 231 0
-288 228 229 0
-288 226 227 0
-288 224 225 0
-288 222 223 0
-288 220 221 0
-288 218 219 0
-288 216 217 0
-288 214 215 0
-288 212 213 0
-288 210 211 0
-288 208 209 0
-288 206 207 0
-288 204 205 0
-288 198 199 200 201 202 203 0
-289 0
-290 0
-291 0
-292 0
-293 0
-294 0
-295 0
-296 0
-297 0
-298 0
-299 0
-300 0
-301 0
-302 0
-303 0
-304 0
-305 0
-306 0
-307 0
-308 0
-309 0
-287 75 0
-287 17 0
-287 -18 0
-286 76 0
-286 17 0
-286 -19 0
-285 77 0
-285 17 0
-285 -20 0
-284 78 0
-284 17 0
-284 -21 0
-283 79 0
-283 17 0
-283 -22 0
-282 80 0
-282 17 0
-282 -23 0
-281 75 0
-281 17 0
-281 -18 0
-280 81 0
-280 18 0
-280 -19 0
-279 82 0
-279 18 0
-279 -20 0
-278 83 0
-278 18 0
-278 -21 0
-277 84 0
-277 18 0
-277 -22 0
-276 85 0
-276 18 0
-276 -23 0
-275 76 0
-275 17 0
-275 -19 0
-274 81 0
-274 18 0
-274 -19 0
-273 86 0
-273 19 0
-273 -20 0
-272 87 0
-272 19 0
-272 -21 0
-271 88 0
-271 19 0
-271 -22 0
-270 89 0
-270 19 0
-270 -23 0
-269 77 0
-269 17 0
-269 -20 0
-268 82 0
-268 18 0
-268 -20 0
-267 86 0
-267 19 0
-267 -20 0
-266 90 0
-266 20 0
-266 -21 0
-265 91 0
-265 20 0
-265 -22 0
-264 92 0
-264 20 0
-264 -23 0
-263 78 0
-263 17 0
-263 -21 0
-262 83 0
-262 18 0
-262 -21 0
-261 87 0
-261 19 0
-261 -21 0
-260 90 0
-260 20 0
-260 -21 0
-259 93 0
-259 21 0
-259 -22 0
-258 94 0
-258 21 0
-258 -23 0
-257 79 0
-257 17 0
-257 -22 0
-256 84 0
-256 18 0
-256 -22 0
-255 88 0
-255 19 0
-255 -22 0
-254 91 0
-254 20 0
-254 -22 0
-253 93 0
-253 21 0
-253 -22 0
-252 95 0
-252 22 0
-252 -23 0
-251 80 0
-251 17 0
-251 -23 0
-250 85 0
-250 18 0
-250 -23 0
-249 89 0
-249 19 0
-249 -23 0
-248 92 0
-248 20 0
-248 -23 0
-247 94 0
-247 21 0
-247 -23 0
-246 95 0
-246 22 0
-246 -23 0
-244 -75 -17 18 0
-245 -25 0
-245 26 0
-242 -76 -17 19 0
-243 -25 0
-243 27 0
-240 -77 -17 20 0
-241 -25 0
-241 28 0
-238 -78 -17 21 0
-239 -25 0
-239 29 0
-236 -79 -17 22 0
-237 -25 0
-237 30 0
-234 -80 -17 23 0
-235 -25 0
-235 31 0
-232 -81 -18 19 0
-233 -26 0
-233 27 0
-230 -82 -18 20 0
-231 -26 0
-231 28 0
-228 -83 -18 21 0
-229 -26 0
-229 29 0
-226 -84 -18 22 0
-227 -26 0
-227 30 0
-224 -85 -18 23 0
-225 -26 0
-225 31 0
-222 -86 -19 20 0
-223 -27 0
-223 28 0
-220 -87 -19 21 0
-221 -27 0
-221 29 0
-218 -88 -19 22 0
-219 -27 0
-219 30 0
-216 -89 -19 23 0
-217 -27 0
-217 31 0
-214 -90 -20 21 0
-215 -28 0
-215 29 0
-212 -91 -20 22 0
-213 -28 0
-213 30 0
-210 -92 -20 23 0
-211 -28 0
-211 31 0
-208 -93 -21 22 0
-209 -29 0
-209 30 0
-206 -94 -21 23 0
-207 -29 0
-207 31 0
-204 -95 -22 23 0
-205 -30 0
-205 31 0
-198 25 0
-198 -26 0
-199 26 0
-199 -27 0
-200 27 0
-200 -28 0
-201 28 0
-201 -29 0
-202 29 0
-202 -30 0
-203 30 0
-203 -31 0
